2613 0 1 385 391 399 414 424 433 439 451 468 477 495
2615 0 2 445 451 459 474 484 453 459 511 528 537 555
2617 0 2 505 571 588 597 615
9711 0 3 525 561 575 582 598
2623 0 1 685 691 699 714 724 733 739 751 768 777 795
12643 1 1 1285 1291 1299 1341 1324 1333 1339 1351 1368 1377 1395
12645 1 1 1345 1351 1359 1374 1384 1393 1399 1411 1428 1437 1455